NAME : mtsp150.5246494_71224719.tour
COMMENT : Cost = 5246494_71224719
COMMENT : Found by LKH-3 [Keld Helsgaun] Tue Mar 15 23:34:23 2022
TYPE : TOUR
DIMENSION : 169
TOUR_SECTION
1
58
151
51
152
110
153
25
154
108
155
93
138
31
89
133
148
157
3
40
54
64
144
2
82
126
13
95
116
44
73
69
161
140
135
112
57
29
125
87
48
163
47
72
36
99
102
26
88
104
127
21
32
167
80
8
139
97
4
66
129
118
119
143
122
42
142
165
150
35
9
12
120
7
60
86
23
77
156
28
92
75
19
53
124
70
94
137
134
49
130
162
117
123
128
83
52
17
71
146
43
115
149
20
164
98
15
141
59
84
74
63
11
114
109
91
45
160
55
107
30
121
106
22
67
81
78
96
159
131
132
113
10
38
111
16
18
24
90
6
79
166
14
100
105
136
62
27
41
46
34
168
56
158
145
85
39
37
5
103
101
65
76
33
147
50
68
169
61
-1
EOF
